10	5
0	5	1	5	4	3	2
1	2	6	10
2	3	10	6	9
3	3	7	10	8
4	1	9
5	2	7	8
6	1	11
7	1	11
8	1	11
9	1	11
10	1	11
11	0
0	0	0	0	0	0	0
1	9	3	1	1	2	5
2	3	3	1	4	2	5
3	5	4	3	3	2	1
4	1	1	5	1	3	1
5	4	3	4	4	2	1
6	5	1	1	2	1	5
7	4	3	3	2	1	5
8	4	4	1	5	5	3
9	2	5	1	3	3	2
10	7	1	5	5	3	2
11	0	0	0	0	0	0
8	7	8	7	8
